param P := 4;
param M := 3;

param time_required : 
1 2 3 4 :=
1 2 1 3 2
2 4 2 1 2
3 6 2 1 2;

param machine_costs :=
1 160
2 10
3 15;

param availability :=
1 200
2 300
3 500;

param prices :=
1 570
2 250
3 585
4 430;

param setup_time :=
1 12
2 8
3 4
4 0;
